p cnf 188 1056
1 -105 -81 0
-1 105 -81 0
1 105 -82 0
-1 -105 -82 0
21 -105 -87 0
-21 105 -87 0
21 105 -88 0
-21 -105 -88 0
41 -105 -93 0
-41 105 -93 0
41 105 -94 0
-41 -105 -94 0
61 -105 -99 0
-61 105 -99 0
61 105 -100 0
-61 -105 -100 0
2 -81 0
2 -82 0
81 -81 0
82 -82 0
22 -87 0
22 -88 0
87 -87 0
88 -88 0
42 -93 0
42 -94 0
93 -93 0
94 -94 0
62 -99 0
62 -100 0
99 -99 0
100 -100 0
3 -106 -81 0
-3 106 -81 0
3 106 -82 0
-3 -106 -82 0
23 -106 -87 0
-23 106 -87 0
23 106 -88 0
-23 -106 -88 0
43 -106 -93 0
-43 106 -93 0
43 106 -94 0
-43 -106 -94 0
63 -106 -99 0
-63 106 -99 0
63 106 -100 0
-63 -106 -100 0
4 -107 -81 0
-4 107 -81 0
4 107 -82 0
-4 -107 -82 0
24 -107 -87 0
-24 107 -87 0
24 107 -88 0
-24 -107 -88 0
44 -107 -93 0
-44 107 -93 0
44 107 -94 0
-44 -107 -94 0
64 -107 -99 0
-64 107 -99 0
64 107 -100 0
-64 -107 -100 0
5 -108 -81 0
-5 108 -81 0
5 108 -82 0
-5 -108 -82 0
25 -108 -87 0
-25 108 -87 0
25 108 -88 0
-25 -108 -88 0
45 -108 -93 0
-45 108 -93 0
45 108 -94 0
-45 -108 -94 0
65 -108 -99 0
-65 108 -99 0
65 108 -100 0
-65 -108 -100 0
6 -81 0
6 -82 0
81 -81 0
82 -82 0
26 -87 0
26 -88 0
87 -87 0
88 -88 0
46 -93 0
46 -94 0
93 -93 0
94 -94 0
66 -99 0
66 -100 0
99 -99 0
100 -100 0
7 -81 0
7 -82 0
81 -81 0
82 -82 0
27 -87 0
27 -88 0
87 -87 0
88 -88 0
47 -93 0
47 -94 0
93 -93 0
94 -94 0
67 -99 0
67 -100 0
99 -99 0
100 -100 0
8 -109 -81 0
-8 109 -81 0
8 109 -82 0
-8 -109 -82 0
28 -109 -87 0
-28 109 -87 0
28 109 -88 0
-28 -109 -88 0
48 -109 -93 0
-48 109 -93 0
48 109 -94 0
-48 -109 -94 0
68 -109 -99 0
-68 109 -99 0
68 109 -100 0
-68 -109 -100 0
9 -81 0
9 -82 0
81 -81 0
82 -82 0
29 -87 0
29 -88 0
87 -87 0
88 -88 0
49 -93 0
49 -94 0
93 -93 0
94 -94 0
69 -99 0
69 -100 0
99 -99 0
100 -100 0
-10 -81 0
-10 -82 0
81 -81 0
82 -82 0
-30 -87 0
-30 -88 0
87 -87 0
88 -88 0
-50 -93 0
-50 -94 0
93 -93 0
94 -94 0
-70 -99 0
-70 -100 0
99 -99 0
100 -100 0
-11 -81 0
-11 -82 0
81 -81 0
82 -82 0
-31 -87 0
-31 -88 0
87 -87 0
88 -88 0
-51 -93 0
-51 -94 0
93 -93 0
94 -94 0
-71 -99 0
-71 -100 0
99 -99 0
100 -100 0
12 -81 0
12 -82 0
81 -81 0
82 -82 0
32 -87 0
32 -88 0
87 -87 0
88 -88 0
52 -93 0
52 -94 0
93 -93 0
94 -94 0
72 -99 0
72 -100 0
99 -99 0
100 -100 0
13 -81 0
13 -82 0
81 -81 0
82 -82 0
33 -87 0
33 -88 0
87 -87 0
88 -88 0
53 -93 0
53 -94 0
93 -93 0
94 -94 0
73 -99 0
73 -100 0
99 -99 0
100 -100 0
-14 -81 0
-14 -82 0
81 -81 0
82 -82 0
-34 -87 0
-34 -88 0
87 -87 0
88 -88 0
-54 -93 0
-54 -94 0
93 -93 0
94 -94 0
-74 -99 0
-74 -100 0
99 -99 0
100 -100 0
-15 -81 0
-15 -82 0
81 -81 0
82 -82 0
-35 -87 0
-35 -88 0
87 -87 0
88 -88 0
-55 -93 0
-55 -94 0
93 -93 0
94 -94 0
-75 -99 0
-75 -100 0
99 -99 0
100 -100 0
16 -81 0
16 -82 0
81 -81 0
82 -82 0
36 -87 0
36 -88 0
87 -87 0
88 -88 0
56 -93 0
56 -94 0
93 -93 0
94 -94 0
76 -99 0
76 -100 0
99 -99 0
100 -100 0
17 -81 0
17 -82 0
81 -81 0
82 -82 0
37 -87 0
37 -88 0
87 -87 0
88 -88 0
57 -93 0
57 -94 0
93 -93 0
94 -94 0
77 -99 0
77 -100 0
99 -99 0
100 -100 0
18 -81 0
18 -82 0
81 -81 0
82 -82 0
38 -87 0
38 -88 0
87 -87 0
88 -88 0
58 -93 0
58 -94 0
93 -93 0
94 -94 0
78 -99 0
78 -100 0
99 -99 0
100 -100 0
19 -81 0
19 -82 0
81 -81 0
82 -82 0
39 -87 0
39 -88 0
87 -87 0
88 -88 0
59 -93 0
59 -94 0
93 -93 0
94 -94 0
79 -99 0
79 -100 0
99 -99 0
100 -100 0
20 -81 0
20 -82 0
81 -81 0
82 -82 0
40 -87 0
40 -88 0
87 -87 0
88 -88 0
60 -93 0
60 -94 0
93 -93 0
94 -94 0
80 -99 0
80 -100 0
99 -99 0
100 -100 0
-165 81 0
165 -81 0
-166 82 0
165 -82 0
-165 -81 0
-166 -82 0
-171 81 165 0
171 -81 0
171 -165 0
-172 82 166 0
172 -82 0
172 -166 0
-171 -87 0
-172 -88 0
-177 87 171 0
177 -87 0
177 -171 0
-178 88 172 0
178 -88 0
178 -172 0
-177 -93 0
-178 -94 0
-183 93 177 0
183 -93 0
183 -177 0
-184 94 178 0
184 -94 0
184 -178 0
-183 -99 0
-184 -100 0
183 0
184 0
1 -110 -83 0
-1 110 -83 0
1 110 -84 0
-1 -110 -84 0
21 -110 -89 0
-21 110 -89 0
21 110 -90 0
-21 -110 -90 0
41 -110 -95 0
-41 110 -95 0
41 110 -96 0
-41 -110 -96 0
61 -110 -101 0
-61 110 -101 0
61 110 -102 0
-61 -110 -102 0
2 -111 -83 0
-2 111 -83 0
2 111 -84 0
-2 -111 -84 0
22 -111 -89 0
-22 111 -89 0
22 111 -90 0
-22 -111 -90 0
42 -111 -95 0
-42 111 -95 0
42 111 -96 0
-42 -111 -96 0
62 -111 -101 0
-62 111 -101 0
62 111 -102 0
-62 -111 -102 0
3 -83 0
3 -84 0
83 -83 0
84 -84 0
23 -89 0
23 -90 0
89 -89 0
90 -90 0
43 -95 0
43 -96 0
95 -95 0
96 -96 0
63 -101 0
63 -102 0
101 -101 0
102 -102 0
4 -83 0
4 -84 0
83 -83 0
84 -84 0
24 -89 0
24 -90 0
89 -89 0
90 -90 0
44 -95 0
44 -96 0
95 -95 0
96 -96 0
64 -101 0
64 -102 0
101 -101 0
102 -102 0
5 -112 -83 0
-5 112 -83 0
5 112 -84 0
-5 -112 -84 0
25 -112 -89 0
-25 112 -89 0
25 112 -90 0
-25 -112 -90 0
45 -112 -95 0
-45 112 -95 0
45 112 -96 0
-45 -112 -96 0
65 -112 -101 0
-65 112 -101 0
65 112 -102 0
-65 -112 -102 0
6 -83 0
6 -84 0
83 -83 0
84 -84 0
26 -89 0
26 -90 0
89 -89 0
90 -90 0
46 -95 0
46 -96 0
95 -95 0
96 -96 0
66 -101 0
66 -102 0
101 -101 0
102 -102 0
7 -83 0
7 -84 0
83 -83 0
84 -84 0
27 -89 0
27 -90 0
89 -89 0
90 -90 0
47 -95 0
47 -96 0
95 -95 0
96 -96 0
67 -101 0
67 -102 0
101 -101 0
102 -102 0
8 -113 -83 0
-8 113 -83 0
8 113 -84 0
-8 -113 -84 0
28 -113 -89 0
-28 113 -89 0
28 113 -90 0
-28 -113 -90 0
48 -113 -95 0
-48 113 -95 0
48 113 -96 0
-48 -113 -96 0
68 -113 -101 0
-68 113 -101 0
68 113 -102 0
-68 -113 -102 0
9 -114 -83 0
-9 114 -83 0
9 114 -84 0
-9 -114 -84 0
29 -114 -89 0
-29 114 -89 0
29 114 -90 0
-29 -114 -90 0
49 -114 -95 0
-49 114 -95 0
49 114 -96 0
-49 -114 -96 0
69 -114 -101 0
-69 114 -101 0
69 114 -102 0
-69 -114 -102 0
10 -115 -83 0
-10 115 -83 0
10 115 -84 0
-10 -115 -84 0
30 -115 -89 0
-30 115 -89 0
30 115 -90 0
-30 -115 -90 0
50 -115 -95 0
-50 115 -95 0
50 115 -96 0
-50 -115 -96 0
70 -115 -101 0
-70 115 -101 0
70 115 -102 0
-70 -115 -102 0
11 -83 0
11 -84 0
83 -83 0
84 -84 0
31 -89 0
31 -90 0
89 -89 0
90 -90 0
51 -95 0
51 -96 0
95 -95 0
96 -96 0
71 -101 0
71 -102 0
101 -101 0
102 -102 0
12 -116 -83 0
-12 116 -83 0
12 116 -84 0
-12 -116 -84 0
32 -116 -89 0
-32 116 -89 0
32 116 -90 0
-32 -116 -90 0
52 -116 -95 0
-52 116 -95 0
52 116 -96 0
-52 -116 -96 0
72 -116 -101 0
-72 116 -101 0
72 116 -102 0
-72 -116 -102 0
13 -83 0
13 -84 0
83 -83 0
84 -84 0
33 -89 0
33 -90 0
89 -89 0
90 -90 0
53 -95 0
53 -96 0
95 -95 0
96 -96 0
73 -101 0
73 -102 0
101 -101 0
102 -102 0
14 -117 -83 0
-14 117 -83 0
14 117 -84 0
-14 -117 -84 0
34 -117 -89 0
-34 117 -89 0
34 117 -90 0
-34 -117 -90 0
54 -117 -95 0
-54 117 -95 0
54 117 -96 0
-54 -117 -96 0
74 -117 -101 0
-74 117 -101 0
74 117 -102 0
-74 -117 -102 0
15 -118 -83 0
-15 118 -83 0
15 118 -84 0
-15 -118 -84 0
35 -118 -89 0
-35 118 -89 0
35 118 -90 0
-35 -118 -90 0
55 -118 -95 0
-55 118 -95 0
55 118 -96 0
-55 -118 -96 0
75 -118 -101 0
-75 118 -101 0
75 118 -102 0
-75 -118 -102 0
16 -83 0
16 -84 0
83 -83 0
84 -84 0
36 -89 0
36 -90 0
89 -89 0
90 -90 0
56 -95 0
56 -96 0
95 -95 0
96 -96 0
76 -101 0
76 -102 0
101 -101 0
102 -102 0
17 -119 -83 0
-17 119 -83 0
17 119 -84 0
-17 -119 -84 0
37 -119 -89 0
-37 119 -89 0
37 119 -90 0
-37 -119 -90 0
57 -119 -95 0
-57 119 -95 0
57 119 -96 0
-57 -119 -96 0
77 -119 -101 0
-77 119 -101 0
77 119 -102 0
-77 -119 -102 0
18 -120 -83 0
-18 120 -83 0
18 120 -84 0
-18 -120 -84 0
38 -120 -89 0
-38 120 -89 0
38 120 -90 0
-38 -120 -90 0
58 -120 -95 0
-58 120 -95 0
58 120 -96 0
-58 -120 -96 0
78 -120 -101 0
-78 120 -101 0
78 120 -102 0
-78 -120 -102 0
19 -121 -83 0
-19 121 -83 0
19 121 -84 0
-19 -121 -84 0
39 -121 -89 0
-39 121 -89 0
39 121 -90 0
-39 -121 -90 0
59 -121 -95 0
-59 121 -95 0
59 121 -96 0
-59 -121 -96 0
79 -121 -101 0
-79 121 -101 0
79 121 -102 0
-79 -121 -102 0
20 -83 0
20 -84 0
83 -83 0
84 -84 0
40 -89 0
40 -90 0
89 -89 0
90 -90 0
60 -95 0
60 -96 0
95 -95 0
96 -96 0
80 -101 0
80 -102 0
101 -101 0
102 -102 0
-167 83 0
167 -83 0
-168 84 0
167 -84 0
-167 -83 0
-168 -84 0
-173 83 167 0
173 -83 0
173 -167 0
-174 84 168 0
174 -84 0
174 -168 0
-173 -89 0
-174 -90 0
-179 89 173 0
179 -89 0
179 -173 0
-180 90 174 0
180 -90 0
180 -174 0
-179 -95 0
-180 -96 0
-185 95 179 0
185 -95 0
185 -179 0
-186 96 180 0
186 -96 0
186 -180 0
-185 -101 0
-186 -102 0
185 0
186 0
1 -122 -85 0
-1 122 -85 0
1 122 -86 0
-1 -122 -86 0
21 -122 -91 0
-21 122 -91 0
21 122 -92 0
-21 -122 -92 0
41 -122 -97 0
-41 122 -97 0
41 122 -98 0
-41 -122 -98 0
61 -122 -103 0
-61 122 -103 0
61 122 -104 0
-61 -122 -104 0
2 -85 0
2 -86 0
85 -85 0
86 -86 0
22 -91 0
22 -92 0
91 -91 0
92 -92 0
42 -97 0
42 -98 0
97 -97 0
98 -98 0
62 -103 0
62 -104 0
103 -103 0
104 -104 0
3 -85 0
3 -86 0
85 -85 0
86 -86 0
23 -91 0
23 -92 0
91 -91 0
92 -92 0
43 -97 0
43 -98 0
97 -97 0
98 -98 0
63 -103 0
63 -104 0
103 -103 0
104 -104 0
4 -85 0
4 -86 0
85 -85 0
86 -86 0
24 -91 0
24 -92 0
91 -91 0
92 -92 0
44 -97 0
44 -98 0
97 -97 0
98 -98 0
64 -103 0
64 -104 0
103 -103 0
104 -104 0
5 -85 0
5 -86 0
85 -85 0
86 -86 0
25 -91 0
25 -92 0
91 -91 0
92 -92 0
45 -97 0
45 -98 0
97 -97 0
98 -98 0
65 -103 0
65 -104 0
103 -103 0
104 -104 0
6 -85 0
6 -86 0
85 -85 0
86 -86 0
26 -91 0
26 -92 0
91 -91 0
92 -92 0
46 -97 0
46 -98 0
97 -97 0
98 -98 0
66 -103 0
66 -104 0
103 -103 0
104 -104 0
7 -85 0
7 -86 0
85 -85 0
86 -86 0
27 -91 0
27 -92 0
91 -91 0
92 -92 0
47 -97 0
47 -98 0
97 -97 0
98 -98 0
67 -103 0
67 -104 0
103 -103 0
104 -104 0
-8 -85 0
-8 -86 0
85 -85 0
86 -86 0
-28 -91 0
-28 -92 0
91 -91 0
92 -92 0
-48 -97 0
-48 -98 0
97 -97 0
98 -98 0
-68 -103 0
-68 -104 0
103 -103 0
104 -104 0
9 -85 0
9 -86 0
85 -85 0
86 -86 0
29 -91 0
29 -92 0
91 -91 0
92 -92 0
49 -97 0
49 -98 0
97 -97 0
98 -98 0
69 -103 0
69 -104 0
103 -103 0
104 -104 0
10 -123 -85 0
-10 123 -85 0
10 123 -86 0
-10 -123 -86 0
30 -123 -91 0
-30 123 -91 0
30 123 -92 0
-30 -123 -92 0
50 -123 -97 0
-50 123 -97 0
50 123 -98 0
-50 -123 -98 0
70 -123 -103 0
-70 123 -103 0
70 123 -104 0
-70 -123 -104 0
11 -85 0
11 -86 0
85 -85 0
86 -86 0
31 -91 0
31 -92 0
91 -91 0
92 -92 0
51 -97 0
51 -98 0
97 -97 0
98 -98 0
71 -103 0
71 -104 0
103 -103 0
104 -104 0
12 -124 -85 0
-12 124 -85 0
12 124 -86 0
-12 -124 -86 0
32 -124 -91 0
-32 124 -91 0
32 124 -92 0
-32 -124 -92 0
52 -124 -97 0
-52 124 -97 0
52 124 -98 0
-52 -124 -98 0
72 -124 -103 0
-72 124 -103 0
72 124 -104 0
-72 -124 -104 0
13 -85 0
13 -86 0
85 -85 0
86 -86 0
33 -91 0
33 -92 0
91 -91 0
92 -92 0
53 -97 0
53 -98 0
97 -97 0
98 -98 0
73 -103 0
73 -104 0
103 -103 0
104 -104 0
14 -125 -85 0
-14 125 -85 0
14 125 -86 0
-14 -125 -86 0
34 -125 -91 0
-34 125 -91 0
34 125 -92 0
-34 -125 -92 0
54 -125 -97 0
-54 125 -97 0
54 125 -98 0
-54 -125 -98 0
74 -125 -103 0
-74 125 -103 0
74 125 -104 0
-74 -125 -104 0
15 -126 -85 0
-15 126 -85 0
15 126 -86 0
-15 -126 -86 0
35 -126 -91 0
-35 126 -91 0
35 126 -92 0
-35 -126 -92 0
55 -126 -97 0
-55 126 -97 0
55 126 -98 0
-55 -126 -98 0
75 -126 -103 0
-75 126 -103 0
75 126 -104 0
-75 -126 -104 0
16 -85 0
16 -86 0
85 -85 0
86 -86 0
36 -91 0
36 -92 0
91 -91 0
92 -92 0
56 -97 0
56 -98 0
97 -97 0
98 -98 0
76 -103 0
76 -104 0
103 -103 0
104 -104 0
17 -127 -85 0
-17 127 -85 0
17 127 -86 0
-17 -127 -86 0
37 -127 -91 0
-37 127 -91 0
37 127 -92 0
-37 -127 -92 0
57 -127 -97 0
-57 127 -97 0
57 127 -98 0
-57 -127 -98 0
77 -127 -103 0
-77 127 -103 0
77 127 -104 0
-77 -127 -104 0
18 -85 0
18 -86 0
85 -85 0
86 -86 0
38 -91 0
38 -92 0
91 -91 0
92 -92 0
58 -97 0
58 -98 0
97 -97 0
98 -98 0
78 -103 0
78 -104 0
103 -103 0
104 -104 0
19 -128 -85 0
-19 128 -85 0
19 128 -86 0
-19 -128 -86 0
39 -128 -91 0
-39 128 -91 0
39 128 -92 0
-39 -128 -92 0
59 -128 -97 0
-59 128 -97 0
59 128 -98 0
-59 -128 -98 0
79 -128 -103 0
-79 128 -103 0
79 128 -104 0
-79 -128 -104 0
20 -85 0
20 -86 0
85 -85 0
86 -86 0
40 -91 0
40 -92 0
91 -91 0
92 -92 0
60 -97 0
60 -98 0
97 -97 0
98 -98 0
80 -103 0
80 -104 0
103 -103 0
104 -104 0
-169 85 0
169 -85 0
-170 86 0
169 -86 0
-169 -85 0
-170 -86 0
-175 85 169 0
175 -85 0
175 -169 0
-176 86 170 0
176 -86 0
176 -170 0
-175 -91 0
-176 -92 0
-181 91 175 0
181 -91 0
181 -175 0
-182 92 176 0
182 -92 0
182 -176 0
-181 -97 0
-182 -98 0
-187 97 181 0
187 -97 0
187 -181 0
-188 98 182 0
188 -98 0
188 -182 0
-187 -103 0
-188 -104 0
187 0
188 0
